Elemental Po in simple cubic structure
   3.345000
  1.000000000000000   0.000000000000000   0.000000000000000
  0.000000000000000   1.000000000000000   0.000000000000000
  0.000000000000000   0.000000000000000   1.000000000000000
  Po
   1
Direct
  0.000000000000000   0.000000000000000   0.000000000000000 
