Automatic mesh
0       ! 
Gamma centered Monkhorst-pack
8   8   8   ! N1 N2 N3
0   0   0    ! shift
