Diamond
   3.567000
  0.000000000000000   0.500000000000000   0.500000000000000
  0.500000000000000   0.000000000000000   0.500000000000000
  0.500000000000000   0.500000000000000   0.000000000000000
  C
   2
Direct
  0.000000000000000   0.000000000000000   0.000000000000000 
  0.250000000000000   0.250000000000000   0.250000000000000 
