generated by phonopy
   1.0
     0.0000000000000000    5.3505000000000003    5.3505000000000003
     5.3505000000000003    0.0000000000000000    5.3505000000000003
     5.3505000000000003    5.3505000000000003    0.0000000000000000
C
  54
Direct
  0.0013215714067593  0.0000000000000000  0.0000000000000000
  0.3333333333333333  0.0000000000000000  0.0000000000000000
  0.6666666666666666  0.0000000000000000  0.0000000000000000
  0.0000000000000000  0.3333333333333333  0.0000000000000000
  0.3333333333333333  0.3333333333333333  0.0000000000000000
  0.6666666666666666  0.3333333333333333  0.0000000000000000
  0.0000000000000000  0.6666666666666666  0.0000000000000000
  0.3333333333333333  0.6666666666666666  0.0000000000000000
  0.6666666666666666  0.6666666666666666  0.0000000000000000
  0.0000000000000000  0.0000000000000000  0.3333333333333333
  0.3333333333333334  0.0000000000000000  0.3333333333333333
  0.6666666666666666  0.0000000000000000  0.3333333333333333
  0.0000000000000000  0.3333333333333333  0.3333333333333333
  0.3333333333333334  0.3333333333333333  0.3333333333333333
  0.6666666666666666  0.3333333333333333  0.3333333333333333
  0.0000000000000000  0.6666666666666666  0.3333333333333333
  0.3333333333333333  0.6666666666666666  0.3333333333333334
  0.6666666666666666  0.6666666666666666  0.3333333333333333
  0.0000000000000000  0.0000000000000000  0.6666666666666666
  0.3333333333333334  0.0000000000000000  0.6666666666666666
  0.6666666666666667  0.0000000000000000  0.6666666666666666
  0.0000000000000000  0.3333333333333333  0.6666666666666667
  0.3333333333333333  0.3333333333333333  0.6666666666666666
  0.6666666666666666  0.3333333333333333  0.6666666666666667
  0.0000000000000000  0.6666666666666666  0.6666666666666666
  0.3333333333333334  0.6666666666666666  0.6666666666666665
  0.6666666666666667  0.6666666666666666  0.6666666666666666
  0.0833333333333333  0.0833333333333333  0.0833333333333333
  0.4166666666666666  0.0833333333333333  0.0833333333333333
  0.7500000000000000  0.0833333333333333  0.0833333333333333
  0.0833333333333333  0.4166666666666666  0.0833333333333333
  0.4166666666666667  0.4166666666666667  0.0833333333333333
  0.7500000000000000  0.4166666666666667  0.0833333333333333
  0.0833333333333333  0.7500000000000000  0.0833333333333333
  0.4166666666666666  0.7500000000000000  0.0833333333333333
  0.7500000000000000  0.7500000000000000  0.0833333333333334
  0.0833333333333333  0.0833333333333333  0.4166666666666667
  0.4166666666666666  0.0833333333333333  0.4166666666666666
  0.7500000000000000  0.0833333333333333  0.4166666666666667
  0.0833333333333333  0.4166666666666667  0.4166666666666666
  0.4166666666666666  0.4166666666666667  0.4166666666666667
  0.7500000000000000  0.4166666666666667  0.4166666666666667
  0.0833333333333333  0.7500000000000000  0.4166666666666667
  0.4166666666666666  0.7500000000000000  0.4166666666666667
  0.7500000000000000  0.7500000000000000  0.4166666666666667
  0.0833333333333333  0.0833333333333334  0.7500000000000000
  0.4166666666666666  0.0833333333333334  0.7500000000000000
  0.7500000000000000  0.0833333333333333  0.7500000000000001
  0.0833333333333333  0.4166666666666667  0.7500000000000000
  0.4166666666666666  0.4166666666666667  0.7500000000000001
  0.7500000000000000  0.4166666666666667  0.7499999999999999
  0.0833333333333333  0.7500000000000000  0.7500000000000001
  0.4166666666666666  0.7500000000000000  0.7499999999999999
  0.7500000000000000  0.7500000000000000  0.7500000000000000
