bcc Fe
   2.86100000000000
   -0.500    0.500    0.500 
    0.500   -0.500    0.500
    0.500    0.500   -0.500
   Fe
    1
Direct
  0.0000000000000000  0.0000000000000000  0.0000000000000000
