Generated by cif2cell 1.2.1 from ICSD reference: 67518. Ba (Ti O3) :  Buttner, R.H. and Maslen, E.N., Acta Crystallographica, Section B: Structural Science 48, 764-769 (1992).
   4.006000
  1.000000000000000   0.000000000000000   0.000000000000000
  0.000000000000000   1.000000000000000   0.000000000000000
  0.000000000000000   0.000000000000000   1.000000000000000
  Ba   O  Ti
   1   3   1
Direct
  0.000000000000000   0.000000000000000   0.000000000000000 
  0.500000000000000   0.500000000000000   0.000000000000000 
  0.500000000000000   0.000000000000000   0.500000000000000 
  0.000000000000000   0.500000000000000   0.500000000000000 
  0.500000000000000   0.500000000000000   0.500000000000000 
