generated by phonopy
   1.0
    12.0180000000000007    0.0000000000000000    0.0000000000000000
     0.0000000000000000   12.0180000000000007    0.0000000000000000
     0.0000000000000000    0.0000000000000000   12.0180000000000007
Ba O Ti
  27   81   27
Direct
  0.0008320852055250  0.0000000000000000  0.0000000000000000
  0.3333333333333334  0.0000000000000000  0.0000000000000000
  0.6666666666666667  0.0000000000000000  0.0000000000000000
  0.0000000000000000  0.3333333333333334  0.0000000000000000
  0.3333333333333334  0.3333333333333334  0.0000000000000000
  0.6666666666666667  0.3333333333333334  0.0000000000000000
  0.0000000000000000  0.6666666666666667  0.0000000000000000
  0.3333333333333334  0.6666666666666667  0.0000000000000000
  0.6666666666666667  0.6666666666666667  0.0000000000000000
  0.0000000000000000  0.0000000000000000  0.3333333333333334
  0.3333333333333334  0.0000000000000000  0.3333333333333334
  0.6666666666666667  0.0000000000000000  0.3333333333333334
  0.0000000000000000  0.3333333333333334  0.3333333333333334
  0.3333333333333334  0.3333333333333334  0.3333333333333334
  0.6666666666666667  0.3333333333333334  0.3333333333333334
  0.0000000000000000  0.6666666666666667  0.3333333333333334
  0.3333333333333334  0.6666666666666667  0.3333333333333334
  0.6666666666666667  0.6666666666666667  0.3333333333333334
  0.0000000000000000  0.0000000000000000  0.6666666666666667
  0.3333333333333334  0.0000000000000000  0.6666666666666667
  0.6666666666666667  0.0000000000000000  0.6666666666666667
  0.0000000000000000  0.3333333333333334  0.6666666666666667
  0.3333333333333334  0.3333333333333334  0.6666666666666667
  0.6666666666666667  0.3333333333333334  0.6666666666666667
  0.0000000000000000  0.6666666666666667  0.6666666666666667
  0.3333333333333334  0.6666666666666667  0.6666666666666667
  0.6666666666666667  0.6666666666666667  0.6666666666666667
  0.1666666666666667  0.1666666666666667  0.0000000000000000
  0.5000000000000000  0.1666666666666667  0.0000000000000000
  0.8333333333333333  0.1666666666666667  0.0000000000000000
  0.1666666666666667  0.5000000000000000  0.0000000000000000
  0.5000000000000000  0.5000000000000000  0.0000000000000000
  0.8333333333333333  0.5000000000000000  0.0000000000000000
  0.1666666666666667  0.8333333333333333  0.0000000000000000
  0.5000000000000000  0.8333333333333333  0.0000000000000000
  0.8333333333333333  0.8333333333333333  0.0000000000000000
  0.1666666666666667  0.1666666666666667  0.3333333333333334
  0.5000000000000000  0.1666666666666667  0.3333333333333334
  0.8333333333333333  0.1666666666666667  0.3333333333333334
  0.1666666666666667  0.5000000000000000  0.3333333333333334
  0.5000000000000000  0.5000000000000000  0.3333333333333334
  0.8333333333333333  0.5000000000000000  0.3333333333333334
  0.1666666666666667  0.8333333333333333  0.3333333333333334
  0.5000000000000000  0.8333333333333333  0.3333333333333334
  0.8333333333333333  0.8333333333333333  0.3333333333333334
  0.1666666666666667  0.1666666666666667  0.6666666666666667
  0.5000000000000000  0.1666666666666667  0.6666666666666667
  0.8333333333333333  0.1666666666666667  0.6666666666666667
  0.1666666666666667  0.5000000000000000  0.6666666666666667
  0.5000000000000000  0.5000000000000000  0.6666666666666667
  0.8333333333333333  0.5000000000000000  0.6666666666666667
  0.1666666666666667  0.8333333333333333  0.6666666666666667
  0.5000000000000000  0.8333333333333333  0.6666666666666667
  0.8333333333333333  0.8333333333333333  0.6666666666666667
  0.1666666666666667  0.0000000000000000  0.1666666666666667
  0.5000000000000000  0.0000000000000000  0.1666666666666667
  0.8333333333333333  0.0000000000000000  0.1666666666666667
  0.1666666666666667  0.3333333333333334  0.1666666666666667
  0.5000000000000000  0.3333333333333334  0.1666666666666667
  0.8333333333333333  0.3333333333333334  0.1666666666666667
  0.1666666666666667  0.6666666666666667  0.1666666666666667
  0.5000000000000000  0.6666666666666667  0.1666666666666667
  0.8333333333333333  0.6666666666666667  0.1666666666666667
  0.1666666666666667  0.0000000000000000  0.5000000000000000
  0.5000000000000000  0.0000000000000000  0.5000000000000000
  0.8333333333333333  0.0000000000000000  0.5000000000000000
  0.1666666666666667  0.3333333333333334  0.5000000000000000
  0.5000000000000000  0.3333333333333334  0.5000000000000000
  0.8333333333333333  0.3333333333333334  0.5000000000000000
  0.1666666666666667  0.6666666666666667  0.5000000000000000
  0.5000000000000000  0.6666666666666667  0.5000000000000000
  0.8333333333333333  0.6666666666666667  0.5000000000000000
  0.1666666666666667  0.0000000000000000  0.8333333333333333
  0.5000000000000000  0.0000000000000000  0.8333333333333333
  0.8333333333333333  0.0000000000000000  0.8333333333333333
  0.1666666666666667  0.3333333333333334  0.8333333333333333
  0.5000000000000000  0.3333333333333334  0.8333333333333333
  0.8333333333333333  0.3333333333333334  0.8333333333333333
  0.1666666666666667  0.6666666666666667  0.8333333333333333
  0.5000000000000000  0.6666666666666667  0.8333333333333333
  0.8333333333333333  0.6666666666666667  0.8333333333333333
  0.0000000000000000  0.1666666666666667  0.1666666666666667
  0.3333333333333334  0.1666666666666667  0.1666666666666667
  0.6666666666666667  0.1666666666666667  0.1666666666666667
  0.0000000000000000  0.5000000000000000  0.1666666666666667
  0.3333333333333334  0.5000000000000000  0.1666666666666667
  0.6666666666666667  0.5000000000000000  0.1666666666666667
  0.0000000000000000  0.8333333333333333  0.1666666666666667
  0.3333333333333334  0.8333333333333333  0.1666666666666667
  0.6666666666666667  0.8333333333333333  0.1666666666666667
  0.0000000000000000  0.1666666666666667  0.5000000000000000
  0.3333333333333334  0.1666666666666667  0.5000000000000000
  0.6666666666666667  0.1666666666666667  0.5000000000000000
  0.0000000000000000  0.5000000000000000  0.5000000000000000
  0.3333333333333334  0.5000000000000000  0.5000000000000000
  0.6666666666666667  0.5000000000000000  0.5000000000000000
  0.0000000000000000  0.8333333333333333  0.5000000000000000
  0.3333333333333334  0.8333333333333333  0.5000000000000000
  0.6666666666666667  0.8333333333333333  0.5000000000000000
  0.0000000000000000  0.1666666666666667  0.8333333333333333
  0.3333333333333334  0.1666666666666667  0.8333333333333333
  0.6666666666666667  0.1666666666666667  0.8333333333333333
  0.0000000000000000  0.5000000000000000  0.8333333333333333
  0.3333333333333334  0.5000000000000000  0.8333333333333333
  0.6666666666666667  0.5000000000000000  0.8333333333333333
  0.0000000000000000  0.8333333333333333  0.8333333333333333
  0.3333333333333334  0.8333333333333333  0.8333333333333333
  0.6666666666666667  0.8333333333333333  0.8333333333333333
  0.1666666666666667  0.1666666666666667  0.1666666666666667
  0.5000000000000000  0.1666666666666667  0.1666666666666667
  0.8333333333333333  0.1666666666666667  0.1666666666666667
  0.1666666666666667  0.5000000000000000  0.1666666666666667
  0.5000000000000000  0.5000000000000000  0.1666666666666667
  0.8333333333333333  0.5000000000000000  0.1666666666666667
  0.1666666666666667  0.8333333333333333  0.1666666666666667
  0.5000000000000000  0.8333333333333333  0.1666666666666667
  0.8333333333333333  0.8333333333333333  0.1666666666666667
  0.1666666666666667  0.1666666666666667  0.5000000000000000
  0.5000000000000000  0.1666666666666667  0.5000000000000000
  0.8333333333333333  0.1666666666666667  0.5000000000000000
  0.1666666666666667  0.5000000000000000  0.5000000000000000
  0.5000000000000000  0.5000000000000000  0.5000000000000000
  0.8333333333333333  0.5000000000000000  0.5000000000000000
  0.1666666666666667  0.8333333333333333  0.5000000000000000
  0.5000000000000000  0.8333333333333333  0.5000000000000000
  0.8333333333333333  0.8333333333333333  0.5000000000000000
  0.1666666666666667  0.1666666666666667  0.8333333333333333
  0.5000000000000000  0.1666666666666667  0.8333333333333333
  0.8333333333333333  0.1666666666666667  0.8333333333333333
  0.1666666666666667  0.5000000000000000  0.8333333333333333
  0.5000000000000000  0.5000000000000000  0.8333333333333333
  0.8333333333333333  0.5000000000000000  0.8333333333333333
  0.1666666666666667  0.8333333333333333  0.8333333333333333
  0.5000000000000000  0.8333333333333333  0.8333333333333333
  0.8333333333333333  0.8333333333333333  0.8333333333333333
