pymatgen with grid density = 301 / number of atoms
0
Gamma
10 10 1
