generated by phonopy
   1.0
    12.3401500000000013    0.0000000000000000    0.0000000000000000
    -6.1700750000000006   10.6868850000000002    0.0000000000000000
     0.0000000000000000    0.0000000000000000   19.9982930000000003
C
  50
Direct
  0.1337589469316536  0.0666666000000000  0.0004255469316536
  0.3333334000000000  0.0666666000000000  0.0000000000000000
  0.5333334000000000  0.0666666000000000  0.0000000000000000
  0.7333333999999999  0.0666666000000000  0.0000000000000000
  0.9333334000000001  0.0666666000000000  0.0000000000000000
  0.1333334000000000  0.2666666000000000  0.0000000000000000
  0.3333334000000000  0.2666666000000000  0.0000000000000000
  0.5333334000000000  0.2666666000000000  0.0000000000000000
  0.7333333999999999  0.2666666000000000  0.0000000000000000
  0.9333334000000001  0.2666666000000000  0.0000000000000000
  0.1333334000000000  0.4666666000000000  0.0000000000000000
  0.3333334000000000  0.4666666000000000  0.0000000000000000
  0.5333334000000000  0.4666666000000000  0.0000000000000000
  0.7333333999999999  0.4666666000000000  0.0000000000000000
  0.9333334000000002  0.4666666000000000  0.0000000000000000
  0.1333334000000000  0.6666666000000001  0.0000000000000000
  0.3333334000000000  0.6666666000000001  0.0000000000000000
  0.5333334000000000  0.6666666000000001  0.0000000000000000
  0.7333333999999999  0.6666666000000001  0.0000000000000000
  0.9333334000000002  0.6666666000000001  0.0000000000000000
  0.1333334000000001  0.8666666000000000  0.0000000000000000
  0.3333334000000000  0.8666666000000000  0.0000000000000000
  0.5333334000000000  0.8666666000000000  0.0000000000000000
  0.7333334000000000  0.8666666000000000  0.0000000000000000
  0.9333334000000002  0.8666666000000000  0.0000000000000000
  0.0666666000000000  0.1333334000000000  0.0000000000000000
  0.2666666000000000  0.1333334000000000  0.0000000000000000
  0.4666666000000000  0.1333334000000000  0.0000000000000000
  0.6666666000000000  0.1333334000000000  0.0000000000000000
  0.8666665999999998  0.1333334000000000  0.0000000000000000
  0.0666666000000000  0.3333334000000000  0.0000000000000000
  0.2666666000000000  0.3333334000000000  0.0000000000000000
  0.4666666000000000  0.3333334000000000  0.0000000000000000
  0.6666666000000000  0.3333334000000000  0.0000000000000000
  0.8666666000000000  0.3333334000000000  0.0000000000000000
  0.0666666000000000  0.5333334000000000  0.0000000000000000
  0.2666666000000000  0.5333334000000000  0.0000000000000000
  0.4666666000000000  0.5333334000000000  0.0000000000000000
  0.6666666000000001  0.5333334000000000  0.0000000000000000
  0.8666666000000000  0.5333334000000000  0.0000000000000000
  0.0666666000000000  0.7333334000000000  0.0000000000000000
  0.2666666000000000  0.7333334000000000  0.0000000000000000
  0.4666666000000000  0.7333334000000000  0.0000000000000000
  0.6666666000000001  0.7333334000000000  0.0000000000000000
  0.8666666000000000  0.7333334000000000  0.0000000000000000
  0.0666666000000000  0.9333334000000001  0.0000000000000000
  0.2666666000000000  0.9333334000000001  0.0000000000000000
  0.4666666000000000  0.9333334000000001  0.0000000000000000
  0.6666666000000001  0.9333334000000001  0.0000000000000000
  0.8666666000000000  0.9333334000000001  0.0000000000000000
