C2
1.0
2.468030 0.000000 0.000000
-1.234015 2.137377 0.000000
0.000000 0.000000 19.998293
C
2
direct
0.666667 0.333333 0.000000 C
0.333333 0.666667 0.000000 C
